Academic license - for non-commercial use only
Gurobi Optimizer version 9.0.3 build v9.0.3rc0 (mac64)
Optimize a model with 156424 rows, 151200 columns and 877950 nonzeros
Model fingerprint: 0xf530c884
Variable types: 0 continuous, 151200 integer (151200 binary)
Coefficient statistics:
  Matrix range     [1e+00, 1e+00]
  Objective range  [1e+01, 3e+04]
  Bounds range     [1e+00, 1e+00]
  RHS range        [1e+00, 2e+02]
Presolve added 0 rows and 2450 columns
Presolve removed 50 rows and 0 columns
Presolve time: 2.77s
Presolved: 156374 rows, 153650 columns, 635350 nonzeros
Variable types: 0 continuous, 153650 integer (153650 binary)
Found heuristic solution: objective 291422.00000

Concurrent LP optimizer: dual simplex and barrier
Showing barrier log only...

Root barrier log...

Ordering time: 0.45s

Barrier statistics:
 Dense cols : 600
 AA' NZ     : 4.894e+05
 Factor NZ  : 2.609e+06 (roughly 150 MBytes of memory)
 Factor Ops : 1.141e+09 (less than 1 second per iteration)
 Threads    : 3

                  Objective                Residual
Iter       Primal          Dual         Primal    Dual     Compl     Time
   0   1.17386815e+08 -1.75766770e+08  3.25e+02 3.02e+01  8.81e+03     5s
   1   8.50678823e+05 -1.69006679e+08  1.58e+00 8.57e+02  4.05e+02     5s
   2   3.79560922e+05 -6.21554251e+07  2.18e-01 2.96e+02  1.38e+02     6s
   3   3.54735239e+05 -2.64289307e+07  1.43e-01 1.23e+02  5.90e+01     6s
   4   3.54729272e+05 -1.71288056e+13  1.43e-01 5.71e+12  5.90e+01     6s
   5   3.21170879e+05 -7.92169147e+12  1.92e-02 2.64e+12  2.96e+01     6s
   6   2.93578157e+05 -8.54150325e+11  9.79e-01 2.85e+11  4.03e+00     6s
   7   2.92956442e+05 -7.37323175e+11  9.32e-01 2.46e+11  3.43e+00     7s
   8   2.90650115e+05 -7.12347306e+11  8.38e-01 2.37e+11  3.34e+00     7s
   9   2.90645782e+05 -7.11782696e+11  8.38e-01 2.37e+11  3.34e+00     7s
  10   2.90265042e+05 -6.70779754e+11  8.19e-01 2.24e+11  3.14e+00     7s
  11   2.82071569e+05 -3.86000241e+11  6.88e-01 1.29e+11  1.92e+00     7s
  12   2.82061853e+05 -3.85889512e+11  6.88e-01 1.29e+11  1.92e+00     7s
  13   2.81405750e+05 -3.28895546e+11  6.73e-01 1.10e+11  1.64e+00     7s
  14   2.69996977e+05 -1.40875665e+11  5.00e-01 4.70e+10  8.41e-01     8s
  15   2.69993051e+05 -1.40875338e+11  5.00e-01 4.70e+10  8.41e-01     8s
  16   2.69992219e+05 -1.40860650e+11  5.00e-01 4.70e+10  8.41e-01     8s
  17   2.63785729e+05 -3.06822964e+10  3.47e-01 1.02e+10  3.23e-01     8s
  18   2.53532929e+05 -1.28295120e+10  2.61e-01 4.28e+09  1.80e-01     9s
  19   2.46178564e+05 -6.29162653e+09  2.04e-01 2.10e+09  1.17e-01     9s
  20   2.43053243e+05 -4.80619476e+09  1.83e-01 1.60e+09  9.79e-02     9s
  21   2.39386101e+05 -2.94384022e+09  1.57e-01 9.81e+08  7.59e-02     9s
  22   2.37679525e+05 -2.41502298e+09  1.45e-01 8.05e+08  6.77e-02    10s
  23   2.33572707e+05 -1.39627451e+09  1.19e-01 4.65e+08  5.03e-02    10s
  24   2.31167764e+05 -1.06658690e+09  1.03e-01 3.56e+08  4.21e-02    10s
  25   2.27110553e+05 -8.46337622e+08  7.78e-02 2.82e+08  3.08e-02    10s
  26   2.25517460e+05 -7.04464519e+08  6.56e-02 2.35e+08  2.58e-02    10s
  27   2.23809863e+05 -5.41951974e+08  5.27e-02 1.81e+08  2.03e-02    10s
  28   2.23041217e+05 -4.18800224e+08  4.70e-02 1.40e+08  1.75e-02    11s
  29   2.21414067e+05 -3.22069110e+08  3.41e-02 1.07e+08  1.27e-02    11s
  30   2.20827143e+05 -2.41862067e+08  2.90e-02 8.07e+07  1.05e-02    11s
  31   2.19843586e+05 -1.86431784e+08  2.12e-02 6.22e+07  7.61e-03    11s
  32   2.19605882e+05 -1.47122042e+08  1.94e-02 4.91e+07  6.66e-03    11s
  33   2.19034150e+05 -1.23260670e+08  1.45e-02 4.12e+07  5.02e-03    12s
  34   2.18857157e+05 -1.03937883e+08  1.31e-02 3.47e+07  4.41e-03    12s
  35   2.18693044e+05 -8.52630896e+07  1.16e-02 2.85e+07  3.83e-03    12s
  36   2.18560088e+05 -7.79629131e+07  1.04e-02 2.61e+07  3.43e-03    12s
  37   2.18300574e+05 -5.52975866e+07  8.03e-03 1.85e+07  2.57e-03    12s
  38   2.18187028e+05 -4.67438004e+07  6.95e-03 1.57e+07  2.20e-03    12s
  39   2.18056840e+05 -4.14568323e+07  5.74e-03 1.39e+07  1.81e-03    13s
  40   2.17971638e+05 -3.67577854e+07  4.88e-03 1.23e+07  1.55e-03    13s
  41   2.17924051e+05 -2.56208510e+07  4.41e-03 8.61e+06  1.32e-03    13s
  42   2.17834907e+05 -2.19217410e+07  3.47e-03 7.38e+06  1.05e-03    13s
  43   2.17780394e+05 -1.82776690e+07  2.88e-03 6.17e+06  8.74e-04    13s
  44   2.17730109e+05 -1.40730249e+07  2.34e-03 4.76e+06  7.01e-04    14s
  45   2.17697667e+05 -1.16692237e+07  1.98e-03 3.96e+06  5.92e-04    14s
  46   2.17654199e+05 -9.21083136e+06  1.53e-03 3.14e+06  4.54e-04    14s
  47   2.17631028e+05 -7.01386374e+06  1.27e-03 2.41e+06  3.71e-04    14s
  48   2.17610789e+05 -6.10604196e+06  1.07e-03 2.11e+06  3.09e-04    14s
  49   2.17588717e+05 -4.82555332e+06  8.18e-04 1.68e+06  2.37e-04    15s
  50   2.17576679e+05 -3.88721997e+06  6.71e-04 1.37e+06  1.95e-04    15s
  51   2.17562092e+05 -3.31491025e+06  5.00e-04 1.18e+06  1.50e-04    15s
  52   2.17559444e+05 -2.95043511e+06  4.69e-04 1.06e+06  1.39e-04    15s
  53   2.17549110e+05 -2.28666063e+06  3.41e-04 8.35e+05  1.04e-04    15s
  54   2.17545130e+05 -1.94280455e+06  2.93e-04 7.20e+05  9.00e-05    15s
  55   2.17538442e+05 -1.30019198e+06  2.11e-04 5.06e+05  6.51e-05    16s
  56   2.17535511e+05 -1.08798575e+06  1.79e-04 4.35e+05  5.51e-05    16s
  57   2.17532466e+05 -7.60738631e+05  1.44e-04 3.26e+05  4.33e-05    16s
  58   2.17530272e+05 -5.39683810e+05  1.19e-04 2.52e+05  3.50e-05    16s
  59   2.17528117e+05 -3.56883563e+05  9.17e-05 1.91e+05  2.70e-05    16s
  60   2.17527812e+05 -3.24648567e+05  8.82e-05 1.81e+05  2.58e-05    16s
  61   2.17527122e+05 -2.14976481e+05  7.95e-05 1.44e+05  2.27e-05    17s
  62   2.17525309e+05 -1.35611020e+05  5.83e-05 1.18e+05  1.69e-05    17s
  63   2.17524453e+05 -7.58113434e+04  4.68e-05 9.78e+04  1.38e-05    17s
  64   2.17523459e+05  2.39556775e+04  3.39e-05 6.45e+04  9.85e-06    17s
  65   2.17522767e+05  4.79029830e+04  2.58e-05 5.65e+04  7.71e-06    17s
  66   2.17522227e+05  1.01577856e+05  1.86e-05 3.86e+04  5.58e-06    18s
  67   2.17521846e+05  1.27537519e+05  1.36e-05 3.00e+04  4.19e-06    18s
  68   2.17521797e+05  1.47030508e+05  1.31e-05 2.35e+04  3.79e-06    18s
  69   2.17521507e+05  1.57981667e+05  9.40e-06 1.98e+04  2.86e-06    18s
  70   2.17521124e+05  1.75995696e+05  4.53e-06 1.38e+04  1.59e-06    18s
  71   2.17521017e+05  1.91700775e+05  3.28e-06 8.61e+03  1.09e-06    18s
  72   2.17520832e+05  2.12468402e+05  7.81e-07 1.68e+03  2.75e-07    19s
  73   2.17520762e+05  2.16931582e+05  4.85e-07 1.96e+02  2.43e-08    19s
  74   2.17520762e+05  2.16933640e+05  4.85e-07 1.96e+02  2.42e-08    19s
  75   2.17520762e+05  2.16936406e+05  4.84e-07 1.95e+02  2.42e-08    19s
  76   2.17520762e+05  2.16938817e+05  4.83e-07 1.94e+02  2.42e-08    19s
  77   2.17520762e+05  2.16939119e+05  4.83e-07 1.94e+02  2.42e-08    19s
  78   2.17520762e+05  2.16944071e+05  4.82e-07 1.92e+02  2.41e-08    20s
  79   2.17520762e+05  2.16958982e+05  4.79e-07 1.87e+02  2.36e-08    20s
  80   2.17520762e+05  2.16959415e+05  4.78e-07 1.87e+02  2.35e-08    20s
  81   2.17520762e+05  2.16960900e+05  4.77e-07 1.87e+02  2.35e-08    20s
  82   2.17520762e+05  2.16962153e+05  4.76e-07 1.86e+02  2.35e-08    20s
  83   2.17520762e+05  2.16963384e+05  4.76e-07 1.86e+02  2.35e-08    20s
  84   2.17520762e+05  2.16963478e+05  4.76e-07 1.86e+02  2.35e-08    21s

Barrier performed 84 iterations in 20.58 seconds
Sub-optimal termination - objective 2.17520762e+05


Root crossover log...

   55966 DPushes remaining with DInf 6.3308333e+03                21s
       0 DPushes remaining with DInf 4.3353931e+06                22s

    1124 PPushes remaining with PInf 3.7376110e-05                22s
       0 PPushes remaining with PInf 0.0000000e+00                22s

  Push phase complete: Pinf 0.0000000e+00, Dinf 6.6849131e+04     22s


Root simplex log...

Iteration    Objective       Primal Inf.    Dual Inf.      Time
   11007    2.1752077e+05   0.000000e+00   6.684913e+04     22s
   11053    2.1752077e+05   0.000000e+00   0.000000e+00     22s

Solved with barrier

Root relaxation: objective 2.175208e+05, 11053 iterations, 18.15 seconds

    Nodes    |    Current Node    |     Objective Bounds      |     Work
 Expl Unexpl |  Obj  Depth IntInf | Incumbent    BestBd   Gap | It/Node Time

     0     0 217520.766    0 15002 291422.000 217520.766  25.4%     -   23s
H    0     0                    229838.00000 217520.766  5.36%     -   24s
     0     0 217520.766    0 14988 229838.000 217520.766  5.36%     -   53s
     0     2 217520.766    0 14980 229838.000 217520.766  5.36%     -   86s
     1     3 217598.781    1 15536 229838.000 217520.904  5.36%  9433  300s

Explored 2 nodes (23727 simplex iterations) in 300.06 seconds
Thread count was 8 (of 8 available processors)

Solution count 2: 229838 291422 

Time limit reached
Best objective 2.298380000000e+05, best bound 2.175210000000e+05, gap 5.3590%

User-callback calls 187569, time in user-callback 0.92 sec
Solution written to /Users/mdeboute/Desktop/Etudes/Master/M2/S9/GOPP/Projet/multi-period-flp/solution/instSingle_I50_J250_T12_0_result.txt
